Set parameter TokenServer to value "opt-license.discovery.wisc.edu"
Set parameter TimeLimit to value 1800
Gurobi Optimizer version 9.5.1 build v9.5.1rc2 (linux64)
Thread count: 40 physical cores, 80 logical processors, using up to 32 threads
Optimize a model with 3025 rows, 2916 columns and 11610 nonzeros
Model fingerprint: 0x3903352e
Variable types: 0 continuous, 2916 integer (2916 binary)
Coefficient statistics:
  Matrix range     [1e+00, 2e+03]
  Objective range  [1e+00, 9e+00]
  Bounds range     [1e+00, 1e+00]
  RHS range        [1e+00, 4e+00]
Found heuristic solution: objective 237.3236211
Presolve removed 54 rows and 0 columns
Presolve time: 0.05s
Presolved: 2971 rows, 2916 columns, 11610 nonzeros
Variable types: 0 continuous, 2916 integer (2916 binary)
Found heuristic solution: objective 205.7536724

Root relaxation: objective 7.746023e+01, 843 iterations, 0.03 seconds (0.02 work units)

    Nodes    |    Current Node    |     Objective Bounds      |     Work
 Expl Unexpl |  Obj  Depth IntInf | Incumbent    BestBd   Gap | It/Node Time

     0     0   77.46023    0   32  205.75367   77.46023  62.4%     -    0s
H    0     0                      79.0657840   77.46023  2.03%     -    0s
H    0     0                      78.2820871   77.46023  1.05%     -    0s
     0     0   77.46023    0   34   78.28209   77.46023  1.05%     -    0s
H    0     0                      77.4602327   77.46023  0.00%     -    0s

Explored 1 nodes (996 simplex iterations) in 0.25 seconds (0.11 work units)
Thread count was 32 (of 80 available processors)

Solution count 6: 77.4602 77.4602 78.2821 ... 237.324

Optimal solution found (tolerance 1.00e-04)
Best objective 7.746023272797e+01, best bound 7.746023272797e+01, gap 0.0000%
